(set-info :Origin "This instance was generated by: BanditFuzz-- an RL fuzzer for SMT solvers" )
(set-info :Author "Joe Scott, Fed Mora, Vijay Ganesh" )
(set-info :Contact "Joe Scott, joseph.scott@uwaterloo.ca")
(set-logic QF_BV)
(declare-const bool_0 Bool)
(declare-const bool_1 Bool)
(declare-const bool_2 Bool)
(declare-const bool_3 Bool)
(declare-const bool_4 Bool)
(declare-const bv_0 (_ BitVec 32))
(declare-const bv_1 (_ BitVec 32))
(declare-const bv_2 (_ BitVec 32))
(declare-const bv_3 (_ BitVec 32))
(declare-const bv_4 (_ BitVec 32))
(assert (or (bvugt (bvand bv_1 #x1b99ebe7 ) (bvashr #x13a10e53  bv_4)) (bvuge (bvnand bv_2 bv_1) (bvnor #x08dcd37f  bv_2))))
(assert (bvsgt (bvudiv (bvudiv #xc0d6b206  #x02d443a5 ) (bvsdiv bv_2 #x42819707 )) (bvmul (bvashr bv_2 bv_1) (bvor bv_4 #xe785ec36 ))))
(assert (bvuge (bvudiv (bvsub bv_3 #xee22b513 ) (bvnand bv_3 #x20a4b283 )) (bvnand (bvxnor bv_0 #x9aa907b3 ) (bvsdiv #x7e34ad64  bv_1))))
(assert (bvugt (bvxnor (bvudiv #x1930ea38  bv_2) (bvxnor bv_4 #x82ec4d5b )) (bvsdiv (bvadd #x32ecb7c5  #x80dca51b ) (bvxnor bv_2 #x46cae5f3 ))))
(assert (xor (bvsge (bvand bv_1 #xcc0b4cea ) (bvxnor #x9501534a  #x5c6fd69e )) (=> (bvsgt bv_2 bv_4) (bvult #x3be6361d  bv_3))))
(check-sat)
(exit)
